50
20249

125 252
192 324
323 965
302 193
663 595
92 954
150 756
473 694
481 376
369 863
273 951
329 922
209 109
36 274
614 19
469 878
244 294
97 624
306 489
459 290
425 16
264 329
461 588
527 850
25 725
641 5
940 533
717 253
141 228
699 477
887 38
398 171
525 46
278 286
937 649
882 605
481 408
545 726
716 435
852 703
750 835
864 931
281 863
905 769
214 983
213 632
242 504
389 171
160 783
710 2
